9777
9600
9600
9600
8567
8567
8567
8567
8567
8567
8567
8567
8567
8567
8567
8567
8567
8567
8501
8501
8501
8501
8431
8431
8431
8387
8387
8387
8387
8387
8387
8387
8387
8387
8387
8387
8387
8387
8384
8384
8380
8380
8380
8380
8380
8380
8380
8380
8380
8380
8380
8380
8380
8176
8176
8176
8176
8047
8047
8047
8047
8047
8047
8047
8047
8047
8047
8047
8047
8047
8047
8047
8047
8047
8047
8047
8047
8047
8047
8047
8047
8047
8047
8047
8047
8047
8047
8047
8047
8047
8047
8047
8047
8047
8047
8047
8047
8047
8047
8047
8047
8047
8047
8047
8047
8047
8047
8047
8047
8047
8047
8047
8047
8047
8047
8047
8047
8047
8047
8047
8047
8047
8047
8047
8047
8047
8047
8047
8047
7873
7873
7873
7873
7873
7873
7873
7873
7873
7873
7873
7873
7873
7873
7873
7873
7873
7873
7873
7873
7873
7873
7873
7873
7873
7873
7873
7873
7873
7873
7873
7873
7873
7873
7873
7873
7873
7873
7873
7873
7873
7873
7873
7873
7873
7873
7873
7873
7873
7873
7873
7873
7873
7873
7873
7873
7873
7873
7873
7873
7873
7873
7873
7873
7873
7873
7873
7873
7873
7873
7873
7873
7873
7873
7873
7873
7873
7873
7873
7873
7873
7873
7873
7873
7873
7873
7873
7873
7873
7873
7873
7873
7873
7873
7873
7873
7873
7862
7862
7862
7862
7862
7862
7862
7862
7862
7862
7862
7862
7862
7862
7862
7862
7862
7862
7862
7862
7862
7862
7862
7862
7862
7862
7862
7862
7862
7862
7862
7862
7862
7862
7862
7862
7862
7862
7862
7862
7862
7862
7862
7862
7862
7862
7862
7862
7862
7862
7862
7862
7862
7862
7862
7862
7862
7862
7862
7862
7862
7862
7862
7862
7862
7862
7862
7862
7862
7862
7862
7862
7862
7862
7862
7862
7862
7862
7862
7862
7862
7862
7862
7862
7862
7862
7862
7862
7862
7862
7862
7862
7862
7862
7862
7862
7862
7862
7862
7862
7862
7862
7862
7862
7862
7862
7862
7862
7862
7862
7862
7862
7862
7862
7862
7862
7862
7862
7862
7862
7862
7862
7862
7862
7862
7862
7862
7862
7862
7862
7862
7862
7862
7862
7862
7862
7862
7862
7862
7862
7862
7862
7862
7862
7862
7862
7862
7862
7862
7862
7862
7862
7862
7862
7862
7862
7862
7862
7862
7862
7862
7862
7862
7862
7862
7862
7862
7862
7862
7862
7862
7862
7862
7862
7862
7862
7862
7862
7862
7862
7862
7862
7862
7862
7862
7862
7862
7862
7862
7862
7862
7862
7862
7862
7862
7862
7862
7862
7862
7862
7862
7862
7862
7862
7862
7862
7862
7862
7862
7862
7862
7862
7862
7862
7862
7862
7862
7862
7862
7862
7862
7862
7862
7862
7862
7862
7862
7862
7862
7862
7862
7862
7862
7862
7862
7862
7862
7862
7862
7862
7862
7862
7862
7862
7862
7862
7862
7862
7862
7862
7862
7862
7862
7862
7862
7862
7862
7862
7862
7862
7862
7862
7862
7862
7862
7862
7862
7862
7862
7862
7862
7862
7862
7862
7862
7862
7862
7862
7862
7862
7862
7862
7862
7862
7862
7862
7862
7862
7862
7862
7862
7862
7862
7862
7862
7862
7862
7862
7862
7862
7862
7862
7862
7862
7862
7862
7862
7862
7862
7862
7862
7862
7862
7862
7862
7862
7862
7862
7862
7862
7862
7862
7862
7862
7862
7862
7862
7862
7862
7862
7862
7862
7862
7862
7862
7862
7862
7862
7862
7862
7862
7862
7862
7862
7862
7862
7862
7862
7862
7862
7862
7862
7862
7862
7862
7862
7862
7862
7862
7862
7862
7862
7862
7862
7862
7862
7862
7862
7862
7862
7862
7862
7862
7862
7862
7862
7862
7862
7862
7862
7862
7862
7862
7862
7862
7862
7862
7862
7862
7862
7862
7862
7862
7862
7862
7862
7862
7862
7862
7862
7862
7862
7862
7862
7862
7862
7862
7862
7862
7862
7862
7862
7862
7862
7862
7862
7862
7862
7862
7862
7862
7862
7862
7862
7862
7862
7862
7862
7862
7862
7862
7862
7862
7862
7862
7862
7862
7862
7862
7862
7862
7862
7862
7862
7862
7862
7862
7862
7862
7862
7862
7862
7862
7862
7862
7862
7862
7862
7862
7862
7862
7862
7862
7862
7862
7862
7862
7862
7862
7862
7862
7862
7862
7862
7862
7862
7862
7862
7862
7862
7862
7862
7862
7862
7862
7862
7862
7862
7862
7862
7862
7862
7862
7862
7862
7862
7862
7862
7862
7862
7862
7862
7862
7862
7862
7862
7862
7862
7862
7862
7862
7862
7862
7862
7862
7862
7862
7862
7862
7862
7862
7862
7862
7862
7862
7862
7862
7862
7862
7862
7862
7862
7862
7862
7862
7862
7862
7862
7862
7862
7862
7862
7862
7862
7862
7862
7862
7862
7862
7862
7862
7862
7862
7862
7862
7862
7862
7862
7862
7862
7862
7862
7862
7862
7862
7862
7862
7862
7862
7862
7862
7862
7862
7862
7862
7862
7862
7862
7862
7862
7862
7862
7862
7862
7862
7862
7862
7862
7862
7862
7862
7862
7862
7862
7862
7862
7862
7862
7862
7862
7862
7862
7862
7862
7862
7862
7862
7862
7862
7862
7862
7862
7862
7862
7862
7862
7862
7862
7862
7862
7862
7862
7862
7862
7862
7862
7862
7862
7862
7862
7862
7862
7862
7862
7862
7862
7862
7862
7862
7862
7862
7862
7862
7862
7862
7862
7862
7862
7862
7862
7862
7862
7862
7862
7821
7821
7821
7821
7821
7821
7821
7821
7821
7821
7821
7821
7821
7821
7821
7821
7821
7821
7821
7821
7821
7821
7821
7821
7821
7821
7821
7821
7821
7821
7821
7821
7821
7821
7821
7821
7821
7821
7821
7821
7821
7821
7821
7821
7821
7821
7821
7821
7821
7821
7821
7821
7821
7821
7821
7821
7821
7821
7821
7821
7821
7821
7821
7821
7821
7821
7821
7821
7821
7821
7821
7821
7821
7821
7821
7821
7821
7821
7821
7821
7821
7821
7821
7821
7821
7821
7821
7821
7821
7821
7821
7821
7821
7821
7821
7821
7821
7821
7821
7821
7821
7821
7821
7821
7821
7821
7821
7821
7821
7821
7821
7821
7821
7821
7821
7821
7821
7821
7821
7821
7821
7821
7821
7821
7821
7821
7821
7821
7821
7821
7821
7821
7821
7821
7821
7821
7821
7821
7821
7821
7821
7821
7821
7821
7821
7821
7821
7821
7821
7821
7821
7821
7821
7821
7821
7821
7821
7821
7821
7821
7821
7821
7821
7821
7821
7821
7821
7821
7821
7821
7821
7821
7821
7821
7821
7821
7821
7821
7821
7821
7821
7821
7821
7821
7821
7821
7821
7821
7821
7821
7821
7821
7821
7821
7821
7821
7821
7821
7821
7821
7821
7821
7821
7821
7821
7821
7821
7821
7821
7821
7821
7821
7821
7821
7821
7821
7821
7821
7821
7821
7821
7821
7821
7821
7821
7821
7821
7821
7821
7821
7821
7821
7821
7821
7821
7821
7821
7821
7821
7821
7821
7821
7821
7821
7821
7821
7821
7821
7821
7821
7821
7821
7821
7821
7821
7821
7821
7821
7821
7821
7821
7821
7821
7821
7821
7821
7821
7821
7821
7821
7821
7821
7821
7821
7821
7821
7821
7821
7821
7821
7821
7821
7821
7821
7821
7821
7821
7821
7821
7821
7821
7821
7821
7821
7821
7821
7821
7821
7821
7821
7821
7821
7821
7821
7821
7821
7821
7821
7821
7821
7821
7821
7821
7821
7821
7821
7821
7821
7821
7821
7821
7821
7821
7821
7821
7821
7821
7821
7821
7821
7821
7821
7821
7821
7821
7821
7821
7821
7821
7821
7821
7821
7821
7821
7821
7821
7821
7821
7821
7821
7821
7821
7821
7821
7821
7821
7821
7821
7821
7821
7821
7821
7821
7821
7821
7821
7821
7821
7821
7821
7821
7821
7821
7821
7821
7821
7821
7821
7821
7821
7821
7821
7821
7821
7821
7821
7821
7821
7821
7821
7821
7821
7821
7821
7821
7821
7821
7821
7821
7821
7821
7821
7821
7821
7821
7821
7821
7821
7821
7821
7821
7821
7821
7821
7821
7821
7821
7821
7821
7821
7821
7821
7821
7821
7821
7821
7821
7821
7821
7821
7821
7821
7821
7821
7821
7821
7821
7821
7821
7821
7821
7821
7821
7821
7821
7821
7821
7821
7821
7821
7821
7821
7821
7821
7821
7821
7821
7821
7821
7821
7821
7821
7821
7821
7821
7821
7821
7821
7821
7821
7821
7821
7821
7821
7821
7821
7821
7821
7821
7821
7821
7821
7821
7821
7821
7821
7821
7821
7821
7821
7821
7821
7821
7821
7821
7821
7821
7821
7821
7821
7821
7821
7821
7821
7821
7821
7821
7821
7821
7821
7821
7821
7821
7821
7821
7821
7821
7821
7821
7821
7821
7821
7821
7821
7821
7821
7821
7821
7821
7821
7821
7821
7821
7821
7821
7821
7821
7821
7821
7821
7821
7821
7821
7821
7821
7821
7821
7821
7821
7821
7821
7821
7821
7821
7821
7821
7821
7821
7821
7821
7821
7821
7821
7821
7821
7821
7821
7821
7821
7821
7821
7821
7821
7821
7821
7821
7821
7821
7821
7821
7821
7821
7821
7821
7821
7821
7821
7821
7821
7821
7821
7821
7821
7821
7821
7821
7821
7821
7821
7821
7821
7821
7821
7821
7821
7821
7821
7821
7821
7821
7821
7821
7821
7821
7821
7821
7821
7821
7821
7821
7821
7821
7821
7821
7821
7821
7821
7821
7821
7821
7821
7821
7821
7821
7821
7821
7821
7821
7821
7821
7821
7821
7821
7821
7821
7821
7821
7821
7821
7821
7821
7821
7821
7821
7821
7821
7821
7821
7821
7821
7821
7821
7821
7821
7821
7821
7821
7821
7821
7821
7821
7821
7821
7821
7821
7821
7821
7821
7821
7821
7821
7821
7821
7821
7821
7821
7821
7821
7821
7821
7821
7821
7821
7821
7821
7821
7821
7821
7821
7821
7821
7821
7821
7821
7821
7821
7821
7821
7821
7821
7821
7821
7821
7821
7821
7821
7821
7821
7821
7821
7821
7821
7821
7821
7821
7821
7821
7821
7821
7821
7821
7821
7821
7821
7821
7821
7821
7821
7821
7821
7821
7821
7821
7821
7821
7821
7821
7821
7821
7821
7821
7821
7821
7821
7821
7821
7821
7821
7821
7821
7821
7821
7821
7821
7821
7821
7821
7821
7821
7821
7821
7821
7821
7821
7821
7821
7821
7821
7821
7821
7821
7821
7821
7821
7821
7821
7821
7821
7821
7821
7821
7821
7821
7821
7821
7821
7821
7821
7821
7821
7821
7821
7821
7821
7821
7821
7821
7821
7821
7821
7821
7821
7821
7821
7821
7821
7821
7821
7821
7821
7821
7821
7821
7821
7821
7821
7821
7821
7821
7821
7821
7821
7821
7821
7821
7821
7821
7821
7821
7821
7821
7821
7821
7821
7821
7821
7821
7821
7821
7821
7821
7821
7821
7821
7821
7821
7821
7821
7821
7821
7821
7821
7821
7821
7821
7821
7821
7821
7821
7821
7821
7821
7821
7821
7821
7821
7821
7821
7821
7821
7821
7821
7821
7821
7821
7821
7821
7821
7821
7821
7821
7821
7821
7821
7821
7821
7821
7821
7821
7821
7821
7821
7821
7821
7821
7821
7821
7821
7821
7821
7821
7821
7821
7821
7821
7821
7821
7821
7821
7821
7821
7821
7821
7821
7821
7821
7821
7821
7821
7821
7821
7821
7821
7821
7821
7821
7821
7821
7821
7821
7821
7821
7821
7821
7821
7821
7821
7821
7821
7821
7821
7821
7821
7821
7821
7821
7821
7821
7821
7821
7821
7821
7821
7821
7821
7821
7821
7821
7821
7821
7821
7821
7821
7821
7821
7821
7821
7821
7821
7821
7821
7821
7821
7821
7821
7821
7821
7821
7821
7821
7821
7821
7821
7821
7821
7821
7821
7821
7821
7821
7821
7821
7821
7821
7821
7821
7821
7821
7821
7821
7821
7821
7821
7821
7821
7821
7821
7821
7821
7821
7821
7821
7821
7821
7821
7821
7821
7821
7821
7821
7821
7821
7821
7821
7821
7821
7821
7821
7821
7821
7821
7821
7821
7821
7821
7821
7821
7821
7821
7821
7821
7821
7821
7821
7821
7821
7821
7821
7821
7821
7821
7821
7821
7821
7821
7821
7821
7821
7821
7821
7821
7821
7821
7821
7821
7821
7821
7821
7821
7821
7821
7821
7821
7821
7821
7821
7821
7821
7821
7821
7821
7821
7821
7821
7821
7821
7821
7821
7821
7821
7821
7821
7821
7821
7821
7821
7821
7821
7821
7821
7821
7821
7821
7821
7821
7821
7821
7821
7821
